p cnf 34 93
a 9 7 0
e 1 2 3 4 5 6 8 10 11 12 13 14 15 16 17 18 19 20 21 22 23 24 25 26 27 28 29 30 31 32 33 34 0
-2 -1 0
-2 -1 0
1 2 0
-5 -3 0
-5 4 0
3 -4 5 0
7 6 0
7 -6 0
8 -6 0
8 -7 0
6 7 -8 0
9 8 0
9 1 0
-8 -1 -9 0
-11 -10 0
-11 -1 0
10 1 11 0
-12 3 0
-12 -11 0
-3 11 12 0
9 -12 -13 0
-9 12 -13 0
9 12 13 0
-9 -12 13 0
-14 5 0
-14 -13 0
-5 13 14 0
15 -2 0
15 14 0
2 -14 -15 0
-18 16 0
-18 17 0
-16 -17 18 0
-19 -15 0
-19 -18 0
15 18 19 0
10 -11 -20 0
-10 11 -20 0
10 11 20 0
-10 -11 20 0
-19 -20 -21 0
19 20 -21 0
-19 20 21 0
19 -20 21 0
22 -10 0
22 4 0
10 -4 -22 0
23 -21 0
23 22 0
21 -22 -23 0
-24 -7 0
-24 -17 0
7 17 24 0
-26 -25 0
-26 7 0
25 -7 26 0
27 24 0
27 -26 0
-24 26 -27 0
-28 -7 0
-28 10 0
7 -10 28 0
-4 10 -29 0
4 -10 -29 0
-4 -10 29 0
4 10 29 0
28 29 -30 0
-28 -29 -30 0
28 -29 30 0
-28 29 30 0
-31 -27 0
-31 30 0
27 -30 31 0
-8 11 -32 0
8 -11 -32 0
-8 -11 32 0
8 11 32 0
33 -31 0
33 32 0
31 -32 -33 0
-23 33 -34 0
23 -33 -34 0
-23 -33 34 0
23 33 34 0
-33 20 -13 30 -18 -9 0
7 -21 -24 0
-3 -30 15 18 -4 16 34 0
-5 -8 16 -28 9 0
-10 -24 -12 -1 -2 0
29 22 -8 2 0
-19 34 -15 -1 -14 0
-16 -25 11 8 0
34 0
